50
1000
370
364
361
326
323
323
319
310
303
300
289
284
278
267
257
244
244
240
236
232
228
225
224
222
221
204
184
183
182
181
180
180
179
177
173
170
143
140
136
131
125
121
93
87
80
67
64
59
37
23
